Route #1: 49 24 18 25 31 10
Route #2: 13 15 20 37 36 47 21
Route #3: 16 23 43 41 42 22 1
Route #4: 35 19 14 11 38
Route #5: 29 5 48 28 2
Route #6: 3 44 32 9 39 12
Route #7: 6 33 27 45 30
Route #8: 26 7 8 46 34
Route #9: 4 17 40
Cost 674.3390281267334